//Number of items      		
173
//Bin Capacity      
1000
//Known Best Solution  		
77
//Weight of Item
     697         1
     695         1
     693         2
     690         1
     687         1
     686         1
     685         1
     683         1
     682         1
     681         1
     680         1
     676         2
     674         1
     673         2
     671         1
     670         1
     668         1
     665         1
     648         1
     644         1
     640         2
     635         1
     627         1
     625         1
     624         1
     620         1
     618         1
     616         2
     611         1
     609         3
     608         1
     603         1
     602         1
     598         1
     588         1
     579         2
     577         3
     572         1
     565         1
     564         1
     563         1
     559         2
     544         1
     543         1
     542         1
     541         1
     530         1
     527         1
     523         1
     521         1
     515         1
     509         1
     508         2
     507         1
     499         3
     498         1
     491         1
     483         1
     470         1
     464         1
     460         1
     459         1
     455         1
     453         1
     446         2
     444         2
     436         1
     433         1
     430         1
     429         1
     428         1
     425         1
     422         1
     418         2
     413         1
     409         1
     406         1
     404         1
     402         1
     401         1
     400         1
     399         1
     398         1
     385         1
     382         1
     381         1
     379         1
     371         1
     364         2
     354         1
     353         1
     342         1
     336         1
     335         1
     331         1
     329         1
     323         1
     322         1
     315         1
     314         1
     311         2
     309         1
     308         1
     307         1
     303         1
     296         1
     287         2
     284         1
     275         1
     274         1
     273         1
     272         1
     269         1
     266         1
     265         1
     262         1
     250         1
     248         1
     246         1
     244         1
     240         1
     239         1
     234         1
     226         2
     225         1
     217         2
     207         2
     205         1
     194         1
     193         1
     190         1
     189         2
     187         1
     185         1
     181         1
     177         1
     174         1
     173         1
     172         1
     170         2
     161         1
     159         1
     155         1
     154         1
     151         1
     140         1
     138         1
     133         1
     132         1
     114         1
     113         1
     111         1
     109         1
     101         1
      99         2
      97         2
      94         1
      92         1
      90         1
      80         1
      77         1
      69         1
      68         1
      67         1
      64         1
      62         1
      51         1
      39         1
      36         1
      21         1
      17         1
      14         1
       2         1